assets/logs/3_16x16_clingo/3_16x16_clingo.solution.log

-----------------------------------------------------------------
|  0| 73| 36| 54| 79|  0| 40| 50|232| 46|224|218|207|210|  0|214|
-----------------------------------------------------------------
| 34|  0| 77| 71| 38| 52| 81| 67| 42|220|205|  0|  0|216|233|211|
-----------------------------------------------------------------
| 75|162| 56| 33| 83| 69| 59|230| 48|226| 44|222|208|209|212|229|
-----------------------------------------------------------------
| 26| 32|166|160| 61| 31| 65| 51| 57|204|  0|203|  0|231|213|  0|
-----------------------------------------------------------------
|164| 58| 28| 85| 35| 49| 55|202|228|201|  0|206|115|217|227|  0|
-----------------------------------------------------------------
| 30| 24|158|168| 29| 63|121| 47| 53|200|117|199|138|223|113|215|
-----------------------------------------------------------------
| 60|170| 87|154|180| 37| 91|165|119|  0| 11|142|219|134|191|225|
-----------------------------------------------------------------
| 22|156|178|172| 89| 27| 45|123| 93|144|198|136|197|140|221|111|
-----------------------------------------------------------------
|155| 62|152|182| 39|174|163|146|167| 13| 95|  9|  0|189|132|193|
-----------------------------------------------------------------
| 66| 20|153|176|150| 43| 25| 15|125|196|169|175|  5|195|109|  0|
-----------------------------------------------------------------
|151|157| 64| 41|184|161|148|194|179|  2|  7| 97|103|173|187|130|
-----------------------------------------------------------------
| 18| 68| 74|159|190| 23|186|  0| 17|127|177|171|185|  3|101|107|
-----------------------------------------------------------------
| 76|149| 16| 70|  8|  0|192| 21|  4|181|120|  0| 99|105|128|  0|
-----------------------------------------------------------------
|  0| 72|141| 80| 14|188|  6|108| 86| 19|129|183|118|124|  1| 96|
-----------------------------------------------------------------
|147| 78|  0|137|143| 10| 84|133|104| 90|112|122|100| 94|116|126|
-----------------------------------------------------------------
|  0|139|145| 12| 82|135|106| 88|110|131|102| 92|114|  0| 98|  0|
-----------------------------------------------------------------

| n = 16 | k = 6 | coverage = 238, 92.96875%
 Time 300.001
 Name 3_16x16_clingo

