assets/logs/3_16x16_clingo/3_16x16_clingo.log
clingo version 5.4.0
Reading from ...ts/logs/3_16x16_clingo/knights_tour.lp ...
Solving...
Answer: 1
occ(1,15,3) occ(1,5,11) occ(1,2,13) occ(1,2,12) occ(1,5,16) occ(1,12,8) occ(2,14,15) occ(3,11,10) coverage(6)
Optimization: -6
Answer: 2
occ(1,15,3) occ(1,5,11) occ(1,2,13) occ(1,2,12) occ(1,5,16) occ(1,12,8) occ(2,14,15) occ(3,11,10) coverage(7) occ(4,12,16) occ(6,13,14)
Optimization: -7
Answer: 3
occ(1,15,3) occ(1,5,11) occ(1,2,13) occ(1,2,12) occ(1,5,16) occ(1,12,8) occ(2,14,15) occ(3,11,10) coverage(45) occ(17,1,9) occ(23,1,4) occ(24,1,13) occ(86,1,2) occ(90,1,6) occ(96,1,7) occ(100,1,11) occ(156,1,3) occ(234,1,14) occ(242,1,10) occ(248,1,5) occ(252,1,1) occ(15,2,7) occ(16,2,16) occ(20,2,14) occ(21,2,6) occ(25,2,2) occ(26,2,11) occ(88,2,4) occ(94,2,5) occ(98,2,9) occ(158,2,1) occ(244,2,8) occ(250,2,3) occ(13,3,9) occ(14,3,14) occ(19,3,8) occ(22,3,12) occ(31,3,4) occ(34,3,16) occ(84,3,1) occ(92,3,7) occ(102,3,10) occ(154,3,2) occ(160,3,3) occ(232,3,13) occ(236,3,15) occ(240,3,11) occ(246,3,6) occ(18,4,15) occ(27,4,1) occ(28,4,12) occ(33,4,2) occ(36,4,14) occ(76,4,8) occ(82,4,3) occ(106,4,7) occ(110,4,9) occ(230,4,11) occ(238,4,13) occ(11,5,10) occ(12,5,13) occ(29,5,3) occ(32,5,15) occ(35,5,4) occ(38,5,12) occ(62,5,14) occ(80,5,5) occ(104,5,9) occ(112,5,7) occ(118,5,6) occ(152,5,1) occ(162,5,2) occ(226,5,8) occ(30,6,13) occ(37,6,2) occ(46,6,15) occ(52,6,14) occ(60,6,16) occ(74,6,9) occ(78,6,7) occ(108,6,8) occ(114,6,5) occ(150,6,3) occ(224,6,6) occ(228,6,10) occ(9,7,11) occ(10,7,14) occ(40,7,13) occ(50,7,16) occ(54,7,12) occ(64,7,15) occ(116,7,7) occ(120,7,5) occ(126,7,8) occ(164,7,1) occ(178,7,6) occ(184,7,9) occ(39,8,1) occ(44,8,16) occ(48,8,14) occ(58,8,15) occ(72,8,10) occ(124,8,6) occ(148,8,2) occ(176,8,8) occ(182,8,7) occ(222,8,5) occ(7,9,10) occ(8,9,15) occ(42,9,14) occ(56,9,13) occ(66,9,16) occ(70,9,12) occ(122,9,4) occ(128,9,9) occ(166,9,2) occ(174,9,6) occ(180,9,5) occ(186,9,8) occ(220,9,7) occ(5,10,12) occ(41,10,2) occ(68,10,14) occ(132,10,6) occ(146,10,1) occ(218,10,5) occ(6,11,14) occ(130,11,8) occ(168,11,3) occ(172,11,5) occ(188,11,7) occ(4,12,16) occ(43,12,1) occ(134,12,5) occ(144,12,2) occ(216,12,6) occ(170,13,4) occ(190,13,6) occ(198,13,2) occ(214,13,8) occ(136,14,6) occ(142,14,1) occ(200,14,4) occ(208,14,8) occ(138,15,4) occ(192,15,5) occ(196,15,1) occ(204,15,7) occ(212,15,9) occ(140,16,2) occ(194,16,3) occ(202,16,5) occ(206,16,9) occ(210,16,7)
Optimization: -45
Answer: 4
occ(1,15,3) occ(1,5,11) occ(1,2,13) occ(1,2,12) occ(1,5,16) occ(1,12,8) occ(2,14,15) occ(3,11,10) coverage(199) occ(29,1,5) occ(38,1,10) occ(86,1,2) occ(90,1,6) occ(96,1,7) occ(100,1,11) occ(104,1,9) occ(107,1,8) occ(111,1,12) occ(117,1,13) occ(156,1,3) occ(40,2,8) occ(88,2,4) occ(94,2,5) occ(98,2,9) occ(105,2,6) occ(106,2,7) occ(109,2,10) occ(113,2,14) occ(119,2,15) occ(127,2,11) occ(158,2,1) occ(16,3,15) occ(23,3,8) occ(27,3,6) occ(31,3,4) occ(36,3,9) occ(68,3,11) occ(84,3,1) occ(92,3,7) occ(102,3,10) occ(108,3,5) occ(115,3,12) occ(123,3,14) occ(129,3,13) occ(154,3,2) occ(160,3,3) occ(18,4,13) occ(21,4,10) occ(33,4,2) occ(34,4,11) occ(42,4,7) occ(48,4,6) occ(76,4,8) occ(82,4,3) occ(103,4,5) occ(121,4,16) occ(125,4,12) occ(131,4,15) occ(152,4,4) occ(14,5,14) occ(25,5,7) occ(35,5,4) occ(46,5,8) occ(66,5,10) occ(70,5,12) occ(80,5,5) occ(101,5,3) occ(110,5,6) occ(133,5,13) occ(148,5,1) occ(162,5,2) occ(19,6,11) occ(20,6,14) occ(32,6,12) occ(37,6,2) occ(44,6,6) occ(50,6,5) occ(56,6,10) occ(74,6,9) occ(78,6,7) occ(112,6,4) occ(150,6,3) occ(184,6,8) occ(11,7,8) occ(12,7,15) occ(30,7,14) occ(52,7,7) occ(64,7,9) occ(72,7,11) occ(99,7,4) occ(135,7,12) occ(146,7,2) occ(164,7,1) occ(172,7,5) occ(178,7,6) occ(186,7,10) occ(10,8,13) occ(13,8,10) occ(17,8,12) occ(22,8,15) occ(39,8,1) occ(54,8,9) occ(58,8,11) occ(97,8,2) occ(114,8,5) occ(124,8,6) occ(170,8,3) occ(173,8,14) occ(176,8,8) occ(182,8,7) occ(8,9,11) occ(9,9,7) occ(28,9,15) occ(62,9,8) occ(71,9,10) occ(116,9,3) occ(122,9,4) occ(137,9,13) occ(144,9,1) occ(166,9,2) occ(174,9,6) occ(175,9,16) occ(180,9,5) occ(188,9,9) occ(5,10,8) occ(15,10,11) occ(24,10,14) occ(41,10,2) occ(60,10,10) occ(75,10,9) occ(95,10,1) occ(120,10,6) occ(126,10,5) occ(142,10,3) occ(168,10,4) occ(171,10,15) occ(190,10,7) occ(6,11,12) occ(7,11,6) occ(26,11,16) occ(69,11,9) occ(73,11,11) occ(118,11,4) occ(128,11,7) occ(139,11,14) occ(140,11,5) occ(169,11,13) occ(177,11,15) occ(4,12,14) occ(43,12,1) occ(67,12,7) occ(77,12,10) occ(93,12,2) occ(151,12,13) occ(167,12,15) occ(185,12,12) occ(192,12,6) occ(195,12,11) occ(53,13,7) occ(61,13,1) occ(65,13,5) occ(79,13,12) occ(89,13,3) occ(130,13,6) occ(138,13,4) occ(141,13,13) occ(149,13,15) occ(179,13,16) occ(183,13,14) occ(193,13,9) occ(45,14,2) occ(63,14,3) occ(83,14,9) occ(87,14,5) occ(91,14,1) occ(132,14,8) occ(136,14,6) occ(153,14,14) occ(157,14,12) occ(165,14,16) occ(187,14,11) occ(194,14,7) occ(197,14,10) occ(47,15,4) occ(51,15,8) occ(55,15,6) occ(59,15,2) occ(81,15,11) occ(85,15,7) occ(143,15,12) occ(147,15,16) occ(161,15,13) occ(181,15,15) occ(191,15,10) occ(196,15,5) occ(200,15,1) occ(49,16,6) occ(57,16,4) occ(134,16,7) occ(145,16,14) occ(155,16,13) occ(159,16,11) occ(163,16,15) occ(189,16,12) occ(198,16,3)
Optimization: -199
Answer: 5
occ(1,15,3) occ(1,5,11) occ(1,2,13) occ(1,2,12) occ(1,5,16) occ(1,12,8) occ(2,14,15) occ(3,11,10) coverage(203) occ(13,1,7) occ(60,1,13) occ(94,1,6) occ(105,1,5) occ(109,1,9) occ(142,1,10) occ(154,1,14) occ(158,1,12) occ(162,1,16) occ(196,1,3) occ(202,1,4) occ(58,2,15) occ(90,2,5) occ(100,2,6) occ(103,2,3) occ(107,2,7) occ(111,2,11) occ(144,2,8) occ(152,2,16) occ(160,2,14) occ(198,2,1) occ(204,2,2) occ(11,3,8) occ(15,3,6) occ(62,3,12) occ(92,3,7) occ(96,3,5) occ(101,3,1) occ(113,3,9) occ(140,3,11) occ(146,3,10) occ(150,3,14) occ(156,3,13) occ(164,3,15) occ(194,3,4) occ(200,3,3) occ(56,4,14) occ(64,4,10) occ(88,4,4) occ(98,4,7) occ(102,4,5) occ(117,4,6) occ(138,4,13) occ(148,4,12) occ(206,4,1) occ(9,5,9) occ(16,5,7) occ(17,5,5) occ(23,5,10) occ(52,5,15) occ(74,5,6) occ(99,5,2) occ(115,5,8) occ(166,5,14) occ(170,5,12) occ(192,5,3) occ(197,5,13) occ(210,5,4) occ(14,6,9) occ(18,6,5) occ(21,6,8) occ(25,6,12) occ(29,6,16) occ(54,6,13) occ(66,6,11) occ(86,6,3) occ(104,6,6) occ(119,6,7) occ(136,6,14) occ(173,6,10) occ(195,6,15) occ(208,6,2) occ(7,7,8) occ(19,7,6) occ(20,7,3) occ(27,7,14) occ(50,7,16) occ(68,7,9) occ(72,7,7) occ(76,7,5) occ(97,7,1) occ(106,7,4) occ(130,7,10) occ(168,7,13) occ(172,7,11) occ(190,7,2) occ(199,7,12) occ(12,8,10) occ(22,8,1) occ(31,8,15) occ(51,8,5) occ(78,8,3) occ(84,8,4) occ(108,8,2) occ(121,8,6) occ(128,8,8) occ(134,8,13) occ(161,8,12) occ(171,8,9) occ(175,8,11) occ(193,8,16) occ(201,8,14) occ(5,9,9) occ(8,9,13) occ(48,9,15) occ(53,9,3) occ(70,9,8) occ(80,9,5) occ(95,9,2) occ(110,9,4) occ(126,9,6) occ(132,9,11) occ(163,9,10) occ(169,9,7) occ(174,9,12) occ(188,9,1) occ(191,9,14) occ(6,10,15) occ(10,10,11) occ(24,10,2) occ(33,10,16) occ(49,10,6) occ(55,10,1) occ(82,10,3) occ(122,10,5) occ(123,10,7) occ(159,10,13) occ(167,10,9) occ(176,10,10) occ(177,10,12) occ(180,10,8) occ(184,10,4) occ(26,11,4) occ(46,11,14) occ(47,11,8) occ(93,11,1) occ(112,11,3) occ(124,11,7) occ(125,11,5) occ(153,11,15) occ(165,11,11) occ(182,11,6) occ(186,11,2) occ(189,11,13) occ(4,12,14) occ(35,12,15) occ(45,12,10) occ(57,12,2) occ(71,12,3) occ(89,12,4) occ(114,12,5) occ(120,12,6) occ(151,12,13) occ(157,12,12) occ(178,12,9) occ(179,12,11) occ(28,13,3) occ(44,13,13) occ(61,13,5) occ(73,13,1) occ(91,13,2) occ(118,13,8) occ(127,13,6) occ(131,13,10) occ(137,13,15) occ(149,13,11) occ(155,13,14) occ(187,13,12) occ(30,14,1) occ(37,14,16) occ(43,14,11) occ(59,14,3) occ(63,14,7) occ(69,14,4) occ(83,14,9) occ(87,14,5) occ(116,14,6) occ(129,14,8) occ(133,14,12) occ(141,14,14) occ(147,14,13) occ(181,14,10) occ(34,15,4) occ(38,15,8) occ(41,15,13) occ(42,15,12) occ(65,15,5) occ(75,15,2) occ(79,15,6) occ(85,15,7) occ(135,15,14) occ(139,15,16) occ(145,15,15) occ(185,15,11) occ(32,16,2) occ(36,16,6) occ(39,16,15) occ(40,16,10) occ(67,16,3) occ(77,16,4) occ(81,16,8) occ(143,16,13) occ(183,16,9)
Optimization: -203
Answer: 6
occ(1,15,3) occ(1,5,11) occ(1,2,13) occ(1,2,12) occ(1,5,16) occ(1,12,8) occ(2,14,15) occ(3,11,10) coverage(208) occ(13,1,7) occ(60,1,13) occ(94,1,6) occ(105,1,5) occ(109,1,9) occ(142,1,10) occ(154,1,14) occ(158,1,12) occ(162,1,16) occ(196,1,3) occ(58,2,15) occ(90,2,5) occ(100,2,6) occ(103,2,3) occ(107,2,7) occ(111,2,11) occ(144,2,8) occ(152,2,16) occ(160,2,14) occ(198,2,1) occ(11,3,8) occ(15,3,6) occ(62,3,12) occ(92,3,7) occ(96,3,5) occ(101,3,1) occ(113,3,9) occ(140,3,11) occ(146,3,10) occ(150,3,14) occ(156,3,13) occ(164,3,15) occ(194,3,4) occ(200,3,3) occ(56,4,14) occ(64,4,10) occ(88,4,4) occ(98,4,7) occ(102,4,5) occ(117,4,6) occ(138,4,13) occ(148,4,12) occ(204,4,2) occ(9,5,9) occ(16,5,7) occ(17,5,5) occ(23,5,10) occ(52,5,15) occ(74,5,6) occ(99,5,2) occ(115,5,8) occ(166,5,14) occ(170,5,12) occ(192,5,3) occ(197,5,13) occ(202,5,4) occ(14,6,9) occ(18,6,5) occ(21,6,8) occ(25,6,12) occ(29,6,16) occ(54,6,13) occ(66,6,11) occ(86,6,3) occ(104,6,6) occ(119,6,7) occ(136,6,14) occ(173,6,10) occ(195,6,15) occ(206,6,1) occ(7,7,8) occ(19,7,6) occ(20,7,3) occ(27,7,14) occ(50,7,16) occ(68,7,9) occ(72,7,7) occ(76,7,5) occ(97,7,1) occ(106,7,4) occ(130,7,10) occ(168,7,13) occ(172,7,11) occ(190,7,2) occ(199,7,12) occ(12,8,10) occ(22,8,1) occ(31,8,15) occ(51,8,5) occ(78,8,3) occ(84,8,4) occ(108,8,2) occ(121,8,6) occ(128,8,8) occ(134,8,13) occ(161,8,12) occ(171,8,9) occ(175,8,11) occ(193,8,16) occ(201,8,14) occ(5,9,9) occ(8,9,13) occ(48,9,15) occ(53,9,3) occ(70,9,8) occ(80,9,5) occ(95,9,2) occ(110,9,4) occ(126,9,6) occ(132,9,11) occ(163,9,10) occ(169,9,7) occ(174,9,12) occ(188,9,1) occ(191,9,14) occ(203,9,16) occ(6,10,15) occ(10,10,11) occ(24,10,2) occ(33,10,16) occ(49,10,6) occ(55,10,1) occ(82,10,3) occ(122,10,5) occ(123,10,7) occ(159,10,13) occ(167,10,9) occ(176,10,10) occ(177,10,12) occ(180,10,8) occ(184,10,4) occ(205,10,14) occ(26,11,4) occ(46,11,14) occ(47,11,8) occ(93,11,1) occ(112,11,3) occ(124,11,7) occ(125,11,5) occ(153,11,15) occ(165,11,11) occ(182,11,6) occ(186,11,2) occ(189,11,13) occ(207,11,16) occ(4,12,14) occ(35,12,15) occ(45,12,10) occ(57,12,2) occ(71,12,3) occ(89,12,4) occ(114,12,5) occ(120,12,6) occ(151,12,13) occ(157,12,12) occ(178,12,9) occ(179,12,11) occ(28,13,3) occ(44,13,13) occ(61,13,5) occ(73,13,1) occ(91,13,2) occ(118,13,8) occ(127,13,6) occ(131,13,10) occ(137,13,15) occ(149,13,11) occ(155,13,14) occ(187,13,12) occ(30,14,1) occ(37,14,16) occ(43,14,11) occ(59,14,3) occ(63,14,7) occ(69,14,4) occ(83,14,9) occ(87,14,5) occ(116,14,6) occ(129,14,8) occ(133,14,12) occ(141,14,14) occ(147,14,13) occ(181,14,10) occ(34,15,4) occ(38,15,8) occ(41,15,13) occ(42,15,12) occ(65,15,5) occ(75,15,2) occ(79,15,6) occ(85,15,7) occ(135,15,14) occ(139,15,16) occ(145,15,15) occ(185,15,11) occ(32,16,2) occ(36,16,6) occ(39,16,15) occ(40,16,10) occ(67,16,3) occ(77,16,4) occ(81,16,8) occ(143,16,13) occ(183,16,9)
Optimization: -208
Answer: 7
occ(1,15,3) occ(1,5,11) occ(1,2,13) occ(1,2,12) occ(1,5,16) occ(1,12,8) occ(2,14,15) occ(3,11,10) coverage(213) occ(13,1,7) occ(60,1,13) occ(94,1,6) occ(105,1,5) occ(109,1,9) occ(142,1,10) occ(154,1,14) occ(158,1,12) occ(162,1,16) occ(196,1,3) occ(210,1,4) occ(214,1,2) occ(58,2,15) occ(90,2,5) occ(100,2,6) occ(103,2,3) occ(107,2,7) occ(111,2,11) occ(144,2,8) occ(152,2,16) occ(160,2,14) occ(198,2,1) occ(208,2,2) occ(216,2,4) occ(11,3,8) occ(15,3,6) occ(62,3,12) occ(92,3,7) occ(96,3,5) occ(101,3,1) occ(113,3,9) occ(140,3,11) occ(146,3,10) occ(150,3,14) occ(156,3,13) occ(164,3,15) occ(194,3,4) occ(212,3,3) occ(218,3,2) occ(56,4,14) occ(64,4,10) occ(88,4,4) occ(98,4,7) occ(102,4,5) occ(117,4,6) occ(138,4,13) occ(148,4,12) occ(200,4,2) occ(206,4,1) occ(222,4,3) occ(9,5,9) occ(16,5,7) occ(17,5,5) occ(23,5,10) occ(52,5,15) occ(74,5,6) occ(99,5,2) occ(115,5,8) occ(166,5,14) occ(170,5,12) occ(192,5,3) occ(197,5,13) occ(202,5,4) occ(220,5,1) occ(14,6,9) occ(18,6,5) occ(21,6,8) occ(25,6,12) occ(29,6,16) occ(54,6,13) occ(66,6,11) occ(86,6,3) occ(104,6,6) occ(119,6,7) occ(136,6,14) occ(173,6,10) occ(195,6,15) occ(204,6,2) occ(224,6,4) occ(7,7,8) occ(19,7,6) occ(20,7,3) occ(27,7,14) occ(50,7,16) occ(68,7,9) occ(72,7,7) occ(76,7,5) occ(97,7,1) occ(106,7,4) occ(130,7,10) occ(168,7,13) occ(172,7,11) occ(190,7,2) occ(199,7,12) occ(12,8,10) occ(22,8,1) occ(31,8,15) occ(51,8,5) occ(78,8,3) occ(84,8,4) occ(108,8,2) occ(121,8,6) occ(128,8,8) occ(134,8,13) occ(161,8,12) occ(171,8,9) occ(175,8,11) occ(193,8,16) occ(201,8,14) occ(5,9,9) occ(8,9,13) occ(48,9,15) occ(53,9,3) occ(70,9,8) occ(80,9,5) occ(95,9,2) occ(110,9,4) occ(126,9,6) occ(132,9,11) occ(163,9,10) occ(169,9,7) occ(174,9,12) occ(188,9,1) occ(191,9,14) occ(203,9,16) occ(6,10,15) occ(10,10,11) occ(24,10,2) occ(33,10,16) occ(49,10,6) occ(55,10,1) occ(82,10,3) occ(122,10,5) occ(123,10,7) occ(159,10,13) occ(167,10,9) occ(176,10,10) occ(177,10,12) occ(180,10,8) occ(184,10,4) occ(205,10,14) occ(26,11,4) occ(46,11,14) occ(47,11,8) occ(93,11,1) occ(112,11,3) occ(124,11,7) occ(125,11,5) occ(153,11,15) occ(165,11,11) occ(182,11,6) occ(186,11,2) occ(189,11,13) occ(207,11,12) occ(4,12,16) occ(35,12,15) occ(45,12,10) occ(57,12,2) occ(71,12,3) occ(89,12,4) occ(114,12,5) occ(120,12,6) occ(151,12,13) occ(157,12,12) occ(178,12,9) occ(179,12,11) occ(209,12,14) occ(28,13,3) occ(44,13,13) occ(61,13,5) occ(73,13,1) occ(91,13,2) occ(118,13,8) occ(127,13,6) occ(131,13,10) occ(137,13,15) occ(149,13,11) occ(155,13,14) occ(187,13,12) occ(211,13,16) occ(30,14,1) occ(37,14,16) occ(43,14,11) occ(59,14,3) occ(63,14,7) occ(69,14,4) occ(83,14,9) occ(87,14,5) occ(116,14,6) occ(129,14,8) occ(133,14,12) occ(141,14,14) occ(147,14,13) occ(181,14,10) occ(34,15,4) occ(38,15,8) occ(41,15,13) occ(42,15,12) occ(65,15,5) occ(75,15,2) occ(79,15,6) occ(85,15,7) occ(135,15,14) occ(139,15,16) occ(145,15,15) occ(185,15,11) occ(32,16,2) occ(36,16,6) occ(39,16,15) occ(40,16,10) occ(67,16,3) occ(77,16,4) occ(81,16,8) occ(143,16,13) occ(183,16,9)
Optimization: -213
Answer: 8
occ(1,15,3) occ(1,5,11) occ(1,2,13) occ(1,2,12) occ(1,5,16) occ(1,12,8) occ(2,14,15) occ(3,11,10) coverage(217) occ(94,1,6) occ(105,1,5) occ(111,1,10) occ(123,1,4) occ(158,1,16) occ(201,1,11) occ(204,1,9) occ(208,1,13) occ(209,1,7) occ(213,1,3) occ(214,1,14) occ(224,1,15) occ(100,2,6) occ(103,2,3) occ(109,2,8) occ(125,2,2) occ(153,2,10) occ(160,2,14) occ(199,2,9) occ(206,2,11) occ(211,2,5) occ(212,2,16) occ(215,2,1) occ(218,2,15) occ(92,3,7) occ(96,3,5) occ(101,3,1) occ(107,3,6) occ(113,3,9) occ(121,3,3) occ(156,3,15) occ(194,3,4) occ(197,3,11) occ(202,3,10) occ(203,3,12) occ(207,3,8) occ(210,3,14) occ(216,3,13) occ(222,3,16) occ(88,4,4) occ(98,4,7) occ(102,4,5) occ(117,4,6) occ(127,4,1) occ(131,4,3) occ(148,4,12) occ(151,4,9) occ(154,4,13) occ(155,4,11) occ(161,4,16) occ(162,4,15) occ(200,4,8) occ(205,4,10) occ(220,4,14) occ(9,5,9) occ(16,5,7) occ(23,5,10) occ(90,5,6) occ(99,5,2) occ(115,5,8) occ(119,5,4) occ(152,5,15) occ(157,5,13) occ(163,5,14) occ(192,5,3) occ(195,5,12) occ(196,5,5) occ(14,6,9) occ(18,6,5) occ(21,6,8) occ(25,6,12) occ(29,6,16) occ(86,6,3) occ(104,6,6) occ(129,6,2) occ(133,6,4) occ(146,6,11) occ(149,6,10) occ(150,6,13) occ(159,6,15) occ(164,6,14) occ(198,6,7) occ(7,7,8) occ(11,7,10) occ(19,7,6) occ(20,7,3) occ(27,7,14) occ(76,7,5) occ(97,7,1) occ(106,7,4) occ(132,7,7) occ(144,7,13) occ(145,7,9) occ(165,7,15) occ(166,7,12) occ(190,7,2) occ(193,7,11) occ(12,8,10) occ(13,8,12) occ(17,8,8) occ(22,8,1) occ(31,8,15) occ(72,8,6) occ(78,8,3) occ(84,8,4) occ(108,8,2) occ(134,8,9) occ(135,8,5) occ(143,8,7) occ(147,8,11) occ(191,8,13) occ(5,9,9) occ(8,9,13) occ(15,9,10) occ(35,9,14) occ(48,9,15) occ(62,9,8) occ(74,9,4) occ(80,9,1) occ(95,9,2) occ(124,9,7) occ(130,9,6) occ(141,9,5) occ(142,9,12) occ(167,9,16) occ(168,9,11) occ(188,9,3) occ(6,10,15) occ(10,10,11) occ(24,10,2) occ(33,10,16) occ(50,10,13) occ(60,10,6) occ(64,10,10) occ(70,10,7) occ(82,10,3) occ(110,10,1) occ(122,10,5) occ(126,10,9) occ(136,10,8) occ(137,10,4) occ(189,10,14) occ(26,11,4) occ(37,11,13) occ(46,11,14) occ(53,11,5) occ(68,11,9) occ(93,11,1) occ(112,11,3) occ(128,11,7) occ(139,11,6) occ(140,11,11) occ(169,11,15) occ(170,11,12) occ(174,11,8) occ(186,11,2) occ(4,12,14) occ(52,12,12) occ(57,12,2) occ(58,12,7) occ(66,12,11) occ(75,12,13) occ(89,12,4) occ(114,12,5) occ(120,12,6) occ(138,12,9) occ(172,12,10) occ(187,12,15) occ(28,13,3) occ(39,13,14) occ(43,13,12) occ(44,13,13) occ(51,13,6) occ(55,13,4) occ(56,13,9) occ(61,13,5) occ(71,13,10) occ(77,13,11) occ(91,13,2) occ(118,13,8) occ(171,13,16) occ(176,13,7) occ(181,13,15) occ(184,13,1) occ(30,14,1) occ(45,14,10) occ(49,14,8) occ(54,14,11) occ(59,14,3) occ(63,14,7) occ(73,14,12) occ(83,14,9) occ(87,14,5) occ(116,14,6) occ(175,14,13) occ(185,14,16) occ(34,15,4) occ(38,15,8) occ(41,15,13) occ(42,15,12) occ(65,15,5) occ(69,15,9) occ(79,15,10) occ(85,15,7) occ(173,15,15) occ(178,15,6) occ(179,15,16) occ(182,15,2) occ(183,15,14) occ(32,16,2) occ(36,16,6) occ(40,16,10) occ(47,16,9) occ(67,16,7) occ(81,16,8) occ(177,16,14) occ(180,16,4)
Optimization: -217
Answer: 9
occ(1,15,3) occ(1,5,11) occ(1,2,13) occ(1,2,12) occ(1,5,16) occ(1,12,8) occ(2,14,15) occ(3,11,10) coverage(218) occ(98,1,4) occ(105,1,5) occ(111,1,10) occ(127,1,2) occ(158,1,16) occ(201,1,11) occ(204,1,9) occ(208,1,13) occ(209,1,7) occ(213,1,3) occ(214,1,14) occ(96,2,2) occ(100,2,6) occ(103,2,3) occ(109,2,8) occ(125,2,4) occ(153,2,10) occ(160,2,14) occ(199,2,9) occ(206,2,11) occ(211,2,5) occ(212,2,16) occ(101,3,1) occ(107,3,6) occ(113,3,9) occ(117,3,7) occ(123,3,2) occ(129,3,3) occ(156,3,15) occ(197,3,11) occ(202,3,10) occ(203,3,12) occ(207,3,8) occ(210,3,14) occ(215,3,4) occ(216,3,13) occ(88,4,2) occ(94,4,1) occ(102,4,7) occ(121,4,4) occ(131,4,5) occ(148,4,12) occ(151,4,9) occ(154,4,13) occ(155,4,11) occ(161,4,16) occ(162,4,15) occ(194,4,3) occ(200,4,8) occ(205,4,10) occ(217,4,6) occ(9,5,9) occ(16,5,7) occ(23,5,10) occ(90,5,4) occ(99,5,2) occ(115,5,8) occ(119,5,6) occ(152,5,15) occ(157,5,13) occ(163,5,14) occ(192,5,1) occ(195,5,12) occ(196,5,5) occ(14,6,9) occ(18,6,5) occ(21,6,8) occ(25,6,12) occ(29,6,16) occ(86,6,3) occ(92,6,2) occ(104,6,6) occ(133,6,4) occ(146,6,11) occ(149,6,10) occ(150,6,13) occ(159,6,15) occ(164,6,14) occ(198,6,7) occ(7,7,8) occ(11,7,10) occ(19,7,6) occ(20,7,3) occ(27,7,14) occ(76,7,5) occ(97,7,1) occ(106,7,4) occ(132,7,7) occ(144,7,13) occ(145,7,9) occ(165,7,15) occ(166,7,12) occ(190,7,2) occ(193,7,11) occ(12,8,10) occ(13,8,12) occ(17,8,8) occ(22,8,1) occ(31,8,15) occ(72,8,6) occ(78,8,3) occ(84,8,4) occ(108,8,2) occ(134,8,9) occ(135,8,5) occ(143,8,7) occ(147,8,11) occ(191,8,13) occ(5,9,9) occ(8,9,13) occ(15,9,10) occ(35,9,14) occ(48,9,15) occ(62,9,8) occ(74,9,4) occ(80,9,1) occ(95,9,2) occ(124,9,7) occ(130,9,6) occ(141,9,5) occ(142,9,12) occ(167,9,16) occ(168,9,11) occ(188,9,3) occ(6,10,15) occ(10,10,11) occ(24,10,2) occ(33,10,16) occ(50,10,13) occ(60,10,6) occ(64,10,10) occ(70,10,7) occ(82,10,3) occ(110,10,1) occ(122,10,5) occ(126,10,9) occ(136,10,8) occ(137,10,4) occ(189,10,14) occ(26,11,4) occ(37,11,13) occ(46,11,14) occ(53,11,5) occ(68,11,9) occ(93,11,1) occ(112,11,3) occ(128,11,7) occ(139,11,6) occ(140,11,11) occ(169,11,15) occ(170,11,12) occ(174,11,8) occ(186,11,2) occ(4,12,14) occ(52,12,12) occ(57,12,2) occ(58,12,7) occ(66,12,11) occ(75,12,13) occ(89,12,4) occ(114,12,5) occ(120,12,6) occ(138,12,9) occ(172,12,10) occ(187,12,15) occ(28,13,3) occ(39,13,14) occ(43,13,12) occ(44,13,13) occ(51,13,6) occ(55,13,4) occ(56,13,9) occ(61,13,5) occ(71,13,10) occ(77,13,11) occ(91,13,2) occ(118,13,8) occ(171,13,16) occ(176,13,7) occ(181,13,15) occ(184,13,1) occ(30,14,1) occ(45,14,10) occ(49,14,8) occ(54,14,11) occ(59,14,3) occ(63,14,7) occ(73,14,12) occ(83,14,9) occ(87,14,5) occ(116,14,6) occ(175,14,13) occ(185,14,16) occ(34,15,4) occ(38,15,8) occ(41,15,13) occ(42,15,12) occ(65,15,5) occ(69,15,9) occ(79,15,10) occ(85,15,7) occ(173,15,15) occ(178,15,6) occ(179,15,16) occ(182,15,2) occ(183,15,14) occ(32,16,2) occ(36,16,6) occ(40,16,10) occ(47,16,9) occ(67,16,7) occ(81,16,8) occ(177,16,14) occ(180,16,4)
Optimization: -218
Answer: 10
occ(1,15,3) occ(1,5,11) occ(1,2,13) occ(1,2,12) occ(1,5,16) occ(1,12,8) occ(2,14,15) occ(3,11,10) coverage(225) occ(98,1,4) occ(105,1,5) occ(111,1,10) occ(127,1,2) occ(158,1,16) occ(201,1,11) occ(204,1,9) occ(208,1,13) occ(209,1,7) occ(213,1,3) occ(214,1,14) occ(223,1,6) occ(224,1,15) occ(96,2,2) occ(100,2,6) occ(103,2,3) occ(109,2,8) occ(125,2,4) occ(153,2,10) occ(160,2,14) occ(199,2,9) occ(206,2,11) occ(211,2,5) occ(212,2,16) occ(218,2,15) occ(219,2,7) occ(101,3,1) occ(107,3,6) occ(113,3,9) occ(117,3,7) occ(123,3,2) occ(129,3,3) occ(156,3,15) occ(197,3,11) occ(202,3,10) occ(203,3,12) occ(207,3,8) occ(210,3,14) occ(215,3,4) occ(216,3,13) occ(221,3,5) occ(222,3,16) occ(88,4,2) occ(94,4,1) occ(102,4,7) occ(121,4,4) occ(131,4,5) occ(148,4,12) occ(151,4,9) occ(154,4,13) occ(155,4,11) occ(161,4,16) occ(162,4,15) occ(194,4,3) occ(200,4,8) occ(205,4,10) occ(217,4,6) occ(220,4,14) occ(9,5,9) occ(16,5,7) occ(23,5,10) occ(90,5,4) occ(99,5,2) occ(115,5,8) occ(119,5,6) occ(152,5,15) occ(157,5,13) occ(163,5,14) occ(192,5,1) occ(195,5,12) occ(196,5,5) occ(14,6,9) occ(18,6,5) occ(21,6,8) occ(25,6,12) occ(29,6,16) occ(86,6,3) occ(92,6,2) occ(104,6,6) occ(133,6,4) occ(146,6,11) occ(149,6,10) occ(150,6,13) occ(159,6,15) occ(164,6,14) occ(198,6,7) occ(7,7,8) occ(11,7,10) occ(19,7,6) occ(20,7,3) occ(27,7,14) occ(76,7,5) occ(97,7,1) occ(106,7,4) occ(132,7,7) occ(144,7,13) occ(145,7,9) occ(165,7,15) occ(166,7,12) occ(190,7,2) occ(193,7,11) occ(12,8,10) occ(13,8,12) occ(17,8,8) occ(22,8,1) occ(31,8,15) occ(72,8,6) occ(78,8,3) occ(84,8,4) occ(108,8,2) occ(134,8,9) occ(135,8,5) occ(143,8,7) occ(147,8,11) occ(191,8,13) occ(5,9,9) occ(8,9,13) occ(15,9,10) occ(35,9,14) occ(48,9,15) occ(62,9,8) occ(74,9,4) occ(80,9,1) occ(95,9,2) occ(124,9,7) occ(130,9,6) occ(141,9,5) occ(142,9,12) occ(167,9,16) occ(168,9,11) occ(188,9,3) occ(6,10,15) occ(10,10,11) occ(24,10,2) occ(33,10,16) occ(50,10,13) occ(60,10,6) occ(64,10,10) occ(70,10,7) occ(82,10,3) occ(110,10,1) occ(122,10,5) occ(126,10,9) occ(136,10,8) occ(137,10,4) occ(189,10,14) occ(26,11,4) occ(37,11,13) occ(46,11,14) occ(53,11,5) occ(68,11,9) occ(93,11,1) occ(112,11,3) occ(128,11,7) occ(139,11,6) occ(140,11,11) occ(169,11,15) occ(170,11,12) occ(174,11,8) occ(186,11,2) occ(4,12,14) occ(52,12,12) occ(57,12,2) occ(58,12,7) occ(66,12,11) occ(75,12,13) occ(89,12,4) occ(114,12,5) occ(120,12,6) occ(138,12,9) occ(172,12,10) occ(187,12,15) occ(28,13,3) occ(39,13,14) occ(43,13,12) occ(44,13,13) occ(51,13,6) occ(55,13,4) occ(56,13,9) occ(61,13,5) occ(71,13,10) occ(77,13,11) occ(91,13,2) occ(118,13,8) occ(171,13,16) occ(176,13,7) occ(181,13,15) occ(184,13,1) occ(30,14,1) occ(45,14,10) occ(49,14,8) occ(54,14,11) occ(59,14,3) occ(63,14,7) occ(73,14,12) occ(83,14,9) occ(87,14,5) occ(116,14,6) occ(175,14,13) occ(185,14,16) occ(34,15,4) occ(38,15,8) occ(41,15,13) occ(42,15,12) occ(65,15,5) occ(69,15,9) occ(79,15,10) occ(85,15,7) occ(173,15,15) occ(178,15,6) occ(179,15,16) occ(182,15,2) occ(183,15,14) occ(32,16,2) occ(36,16,6) occ(40,16,10) occ(47,16,9) occ(67,16,7) occ(81,16,8) occ(177,16,14) occ(180,16,4)
Optimization: -225
Answer: 11
occ(1,15,3) occ(1,5,11) occ(1,2,13) occ(1,2,12) occ(1,5,16) occ(1,12,8) occ(2,14,15) occ(3,11,10) coverage(233) occ(22,1,12) occ(27,1,6) occ(30,1,8) occ(62,1,4) occ(92,1,1) occ(205,1,3) occ(209,1,7) occ(213,1,11) occ(216,1,5) occ(219,1,16) occ(223,1,14) occ(229,1,15) occ(18,2,15) occ(24,2,10) occ(28,2,6) occ(29,2,4) occ(64,2,2) occ(84,2,8) occ(94,2,3) occ(95,2,11) occ(203,2,1) occ(207,2,5) occ(211,2,9) occ(214,2,7) occ(217,2,14) occ(225,2,16) occ(20,3,13) occ(25,3,7) occ(26,3,8) occ(32,3,9) occ(52,3,11) occ(60,3,5) occ(68,3,3) occ(82,3,10) occ(86,3,6) occ(90,3,2) occ(96,3,1) occ(215,3,12) occ(218,3,4) occ(221,3,15) occ(227,3,14) occ(231,3,16) occ(16,4,14) occ(31,4,3) occ(50,4,13) occ(54,4,9) occ(55,4,11) occ(58,4,7) occ(66,4,1) occ(74,4,5) occ(80,4,8) occ(88,4,4) occ(93,4,12) occ(97,4,10) occ(165,4,16) occ(201,4,2) occ(212,4,6) occ(14,5,12) occ(23,5,6) occ(34,5,10) occ(53,5,9) occ(57,5,13) occ(70,5,4) occ(76,5,7) occ(89,5,15) occ(98,5,2) occ(99,5,8) occ(167,5,14) occ(197,5,5) occ(220,5,3) occ(12,6,10) occ(33,6,2) occ(48,6,14) occ(51,6,7) occ(56,6,8) occ(59,6,11) occ(72,6,6) occ(78,6,9) occ(91,6,13) occ(148,6,12) occ(163,6,15) occ(192,6,4) occ(199,6,3) occ(210,6,5) occ(222,6,1) occ(10,7,12) occ(21,7,5) occ(36,7,11) occ(61,7,9) occ(87,7,16) occ(100,7,1) occ(101,7,7) occ(131,7,8) occ(146,7,14) occ(150,7,10) occ(161,7,13) occ(169,7,15) occ(190,7,2) occ(195,7,6) occ(202,7,4) occ(208,7,3) occ(35,8,3) occ(46,8,15) occ(49,8,6) occ(85,8,14) occ(129,8,10) occ(135,8,9) occ(144,8,12) occ(159,8,11) occ(171,8,13) occ(188,8,4) occ(193,8,8) occ(194,8,5) occ(198,8,7) occ(206,8,1) occ(224,8,2) occ(8,9,13) occ(19,9,4) occ(37,9,1) occ(38,9,12) occ(63,9,8) occ(83,9,16) occ(102,9,2) occ(103,9,6) occ(125,9,11) occ(133,9,7) occ(142,9,14) occ(152,9,9) occ(173,9,15) occ(191,9,10) occ(200,9,5) occ(204,9,3) occ(6,10,15) occ(40,10,14) occ(44,10,16) occ(47,10,5) occ(67,10,11) occ(127,10,9) occ(137,10,8) occ(145,10,4) occ(157,10,10) occ(175,10,13) occ(180,10,2) occ(186,10,3) occ(189,10,12) occ(196,10,6) occ(226,10,1) occ(17,11,3) occ(39,11,2) occ(65,11,9) occ(81,11,15) occ(104,11,1) occ(105,11,7) occ(123,11,12) occ(140,11,13) occ(143,11,6) occ(154,11,8) occ(177,11,11) occ(178,11,4) occ(184,11,5) occ(187,11,14) occ(4,12,16) occ(7,12,9) occ(13,12,6) occ(42,12,15) occ(45,12,4) occ(69,12,12) occ(79,12,13) occ(121,12,14) occ(128,12,10) occ(139,12,7) occ(147,12,5) occ(155,12,11) occ(182,12,3) occ(228,12,2) occ(5,13,11) occ(11,13,8) occ(15,13,4) occ(41,13,1) occ(106,13,2) occ(107,13,6) occ(119,13,16) occ(120,13,13) occ(130,13,12) occ(138,13,14) occ(141,13,5) occ(153,13,9) occ(156,13,7) occ(176,13,3) occ(179,13,10) occ(185,13,15) occ(9,14,10) occ(43,14,3) occ(71,14,13) occ(77,14,14) occ(118,14,11) occ(126,14,9) occ(136,14,16) occ(149,14,6) occ(158,14,5) occ(162,14,7) occ(168,14,8) occ(181,14,12) occ(230,14,1) occ(75,15,16) occ(108,15,1) occ(109,15,7) occ(112,15,5) occ(113,15,11) occ(116,15,9) occ(117,15,15) occ(122,15,12) occ(132,15,13) occ(151,15,8) occ(166,15,10) occ(170,15,6) occ(174,15,2) occ(183,15,14) occ(73,16,14) occ(110,16,3) occ(111,16,9) occ(114,16,7) occ(115,16,13) occ(124,16,10) occ(134,16,15) occ(160,16,6) occ(164,16,8) occ(172,16,4) occ(232,16,2)
Optimization: -233
Answer: 12
occ(1,15,3) occ(1,5,11) occ(1,2,13) occ(1,2,12) occ(1,5,16) occ(1,12,8) occ(2,14,15) occ(3,11,10) coverage(234) occ(37,1,3) occ(41,1,7) occ(47,1,10) occ(51,1,8) occ(55,1,4) occ(74,1,2) occ(80,1,5) occ(208,1,13) occ(211,1,14) occ(215,1,16) occ(219,1,12) occ(225,1,11) occ(233,1,9) occ(35,2,1) occ(39,2,5) occ(43,2,9) occ(53,2,6) occ(68,2,8) occ(72,2,4) occ(78,2,3) occ(82,2,7) occ(206,2,11) occ(212,2,16) occ(217,2,14) occ(221,2,10) occ(34,3,4) occ(45,3,11) occ(49,3,9) occ(57,3,3) occ(60,3,7) occ(70,3,6) occ(76,3,1) occ(84,3,5) occ(163,3,2) occ(209,3,13) occ(210,3,14) occ(213,3,15) occ(223,3,12) occ(227,3,10) occ(230,3,16) occ(231,3,8) occ(27,4,1) occ(32,4,6) occ(33,4,2) occ(52,4,8) occ(58,4,9) occ(62,4,5) occ(66,4,7) occ(161,4,4) occ(167,4,3) occ(204,4,12) occ(205,4,10) occ(214,4,15) occ(232,4,14) occ(29,5,3) occ(36,5,5) occ(50,5,6) occ(56,5,7) occ(59,5,2) occ(86,5,4) occ(116,5,13) occ(165,5,1) occ(202,5,10) occ(203,5,8) occ(207,5,12) occ(218,5,14) occ(228,5,15) occ(229,5,9) occ(25,6,2) occ(30,6,5) occ(31,6,1) occ(48,6,8) occ(54,6,9) occ(64,6,6) occ(114,6,15) occ(118,6,11) occ(122,6,7) occ(139,6,13) occ(159,6,3) occ(169,6,4) occ(200,6,12) occ(201,6,10) occ(216,6,16) occ(224,6,14) occ(12,7,11) occ(38,7,6) occ(61,7,1) occ(88,7,3) occ(92,7,7) occ(120,7,9) occ(135,7,14) occ(143,7,12) occ(155,7,4) occ(166,7,8) occ(171,7,2) occ(181,7,5) occ(192,7,15) occ(220,7,13) occ(226,7,16) occ(23,8,1) occ(28,8,6) occ(46,8,7) occ(90,8,5) occ(94,8,9) occ(112,8,16) occ(124,8,8) occ(137,8,12) occ(141,8,14) occ(145,8,10) occ(157,8,2) occ(173,8,4) occ(179,8,3) occ(198,8,13) occ(199,8,11) occ(222,8,15) occ(10,9,12) occ(14,9,10) occ(40,9,5) occ(63,9,2) occ(96,9,11) occ(133,9,15) occ(147,9,8) occ(153,9,3) occ(156,9,1) occ(164,9,7) occ(168,9,9) occ(175,9,6) occ(183,9,4) occ(190,9,14) occ(194,9,16) occ(6,10,13) occ(16,10,8) occ(21,10,2) occ(26,10,7) occ(44,10,6) occ(67,10,1) occ(110,10,15) occ(126,10,9) occ(151,10,5) occ(154,10,3) occ(170,10,11) occ(176,10,12) occ(177,10,4) occ(196,10,14) occ(197,10,10) occ(8,11,11) occ(42,11,4) occ(65,11,3) occ(98,11,12) occ(104,11,13) occ(131,11,16) occ(149,11,7) occ(152,11,1) occ(158,11,2) occ(162,11,6) occ(174,11,14) occ(180,11,9) occ(185,11,5) occ(188,11,15) occ(195,11,8) occ(4,12,14) occ(18,12,9) occ(19,12,1) occ(24,12,6) occ(69,12,2) occ(75,12,3) occ(102,12,15) occ(108,12,16) occ(128,12,10) occ(160,12,4) occ(172,12,12) occ(178,12,11) occ(186,12,13) occ(187,12,7) occ(191,12,5) occ(5,13,9) occ(9,13,5) occ(17,13,3) occ(22,13,8) occ(71,13,4) occ(77,13,1) occ(100,13,13) occ(106,13,14) occ(121,13,11) occ(129,13,15) occ(150,13,2) occ(182,13,10) occ(193,13,7) occ(7,14,7) occ(15,14,5) occ(20,14,10) occ(73,14,2) occ(81,14,4) occ(87,14,9) occ(97,14,16) occ(109,14,8) occ(119,14,13) occ(125,14,14) occ(130,14,11) occ(142,14,3) occ(184,14,12) occ(189,14,6) occ(11,15,6) occ(79,15,2) occ(85,15,7) occ(91,15,10) occ(95,15,14) occ(101,15,13) occ(105,15,9) occ(113,15,11) occ(117,15,15) occ(123,15,12) occ(127,15,16) occ(134,15,8) occ(138,15,4) occ(144,15,5) occ(148,15,1) occ(13,16,4) occ(83,16,5) occ(89,16,8) occ(93,16,12) occ(99,16,15) occ(103,16,11) occ(107,16,7) occ(111,16,9) occ(115,16,13) occ(132,16,10) occ(136,16,6) occ(140,16,2) occ(146,16,3)
Optimization: -234
Answer: 13
occ(1,15,3) occ(1,5,11) occ(1,2,13) occ(1,2,12) occ(1,5,16) occ(1,12,8) occ(2,14,15) occ(3,11,10) coverage(235) occ(37,1,3) occ(41,1,7) occ(47,1,10) occ(51,1,8) occ(55,1,4) occ(74,1,2) occ(80,1,5) occ(208,1,13) occ(211,1,14) occ(215,1,16) occ(219,1,12) occ(225,1,11) occ(233,1,9) occ(35,2,1) occ(39,2,5) occ(43,2,9) occ(53,2,6) occ(68,2,8) occ(72,2,4) occ(78,2,3) occ(82,2,7) occ(206,2,11) occ(212,2,16) occ(217,2,14) occ(221,2,10) occ(234,2,15) occ(34,3,4) occ(45,3,11) occ(49,3,9) occ(57,3,3) occ(60,3,7) occ(70,3,6) occ(76,3,1) occ(84,3,5) occ(163,3,2) occ(209,3,13) occ(210,3,14) occ(213,3,15) occ(223,3,12) occ(227,3,10) occ(230,3,16) occ(231,3,8) occ(27,4,1) occ(32,4,6) occ(33,4,2) occ(52,4,8) occ(58,4,9) occ(62,4,5) occ(66,4,7) occ(161,4,4) occ(167,4,3) occ(204,4,12) occ(205,4,10) occ(214,4,15) occ(232,4,14) occ(29,5,3) occ(36,5,5) occ(50,5,6) occ(56,5,7) occ(59,5,2) occ(86,5,4) occ(116,5,13) occ(165,5,1) occ(202,5,10) occ(203,5,8) occ(207,5,12) occ(218,5,14) occ(228,5,15) occ(229,5,9) occ(25,6,2) occ(30,6,5) occ(31,6,1) occ(48,6,8) occ(54,6,9) occ(64,6,6) occ(114,6,15) occ(118,6,11) occ(122,6,7) occ(139,6,13) occ(159,6,3) occ(169,6,4) occ(200,6,12) occ(201,6,10) occ(216,6,16) occ(224,6,14) occ(12,7,11) occ(38,7,6) occ(61,7,1) occ(88,7,3) occ(92,7,7) occ(120,7,9) occ(135,7,14) occ(143,7,12) occ(155,7,4) occ(166,7,8) occ(171,7,2) occ(181,7,5) occ(192,7,15) occ(220,7,13) occ(226,7,16) occ(23,8,1) occ(28,8,6) occ(46,8,7) occ(90,8,5) occ(94,8,9) occ(112,8,16) occ(124,8,8) occ(137,8,12) occ(141,8,14) occ(145,8,10) occ(157,8,2) occ(173,8,4) occ(179,8,3) occ(198,8,13) occ(199,8,11) occ(222,8,15) occ(10,9,12) occ(14,9,10) occ(40,9,5) occ(63,9,2) occ(96,9,11) occ(133,9,15) occ(147,9,8) occ(153,9,3) occ(156,9,1) occ(164,9,7) occ(168,9,9) occ(175,9,6) occ(183,9,4) occ(190,9,14) occ(194,9,16) occ(6,10,13) occ(16,10,8) occ(21,10,2) occ(26,10,7) occ(44,10,6) occ(67,10,1) occ(110,10,15) occ(126,10,9) occ(151,10,5) occ(154,10,3) occ(170,10,11) occ(176,10,12) occ(177,10,4) occ(196,10,14) occ(197,10,10) occ(8,11,11) occ(42,11,4) occ(65,11,3) occ(98,11,12) occ(104,11,13) occ(131,11,16) occ(149,11,7) occ(152,11,1) occ(158,11,2) occ(162,11,6) occ(174,11,14) occ(180,11,9) occ(185,11,5) occ(188,11,15) occ(195,11,8) occ(4,12,14) occ(18,12,9) occ(19,12,1) occ(24,12,6) occ(69,12,2) occ(75,12,3) occ(102,12,15) occ(108,12,16) occ(128,12,10) occ(160,12,4) occ(172,12,12) occ(178,12,11) occ(186,12,13) occ(187,12,7) occ(191,12,5) occ(5,13,9) occ(9,13,5) occ(17,13,3) occ(22,13,8) occ(71,13,4) occ(77,13,1) occ(100,13,13) occ(106,13,14) occ(121,13,11) occ(129,13,15) occ(150,13,2) occ(182,13,10) occ(193,13,7) occ(7,14,7) occ(15,14,5) occ(20,14,10) occ(73,14,2) occ(81,14,4) occ(87,14,9) occ(97,14,16) occ(109,14,8) occ(119,14,13) occ(125,14,14) occ(130,14,11) occ(142,14,3) occ(184,14,12) occ(189,14,6) occ(11,15,6) occ(79,15,2) occ(85,15,7) occ(91,15,10) occ(95,15,14) occ(101,15,13) occ(105,15,9) occ(113,15,11) occ(117,15,15) occ(123,15,12) occ(127,15,16) occ(134,15,8) occ(138,15,4) occ(144,15,5) occ(148,15,1) occ(13,16,4) occ(83,16,5) occ(89,16,8) occ(93,16,12) occ(99,16,15) occ(103,16,11) occ(107,16,7) occ(111,16,9) occ(115,16,13) occ(132,16,10) occ(136,16,6) occ(140,16,2) occ(146,16,3)
Optimization: -235
*** Info : (clingo): INTERRUPTED by signal!
SATISFIABLE

TIME LIMIT   : 1
Models       : 13+
  Optimum    : unknown
Optimization : -235
Calls        : 1
Time         : 300.000s (Solving: 263.45s 1st Model: 0.02s Unsat: 0.00s)
CPU Time     : 300.001s
